
Gurobi 8.1.1 (linux64, Python) logging started Thu Jul 18 18:39:46 2019

Academic license - for non-commercial use only

Gurobi 8.1.1 (linux64, Python) logging started Mon Jul 22 12:01:04 2019

Academic license - for non-commercial use only

Gurobi 8.1.1 (linux64, Python) logging started Mon Jul 22 16:52:31 2019

Academic license - for non-commercial use only

Gurobi 8.1.1 (linux64, Python) logging started Mon Jul 22 16:53:34 2019

Academic license - for non-commercial use only

Gurobi 8.1.1 (linux64, Python) logging started Mon Jul 22 16:54:32 2019

Academic license - for non-commercial use only

Gurobi 8.1.1 (linux64, Python) logging started Mon Jul 22 17:06:24 2019

Academic license - for non-commercial use only

Gurobi 8.1.1 (linux64, Python) logging started Mon Jul 22 17:09:11 2019

Academic license - for non-commercial use only

Gurobi 8.1.1 (linux64, Python) logging started Mon Jul 22 17:14:00 2019

Academic license - for non-commercial use only

Gurobi 8.1.1 (linux64, Python) logging started Mon Jul 22 17:17:42 2019

Academic license - for non-commercial use only

Gurobi 8.1.1 (linux64, Python) logging started Wed Jul 24 18:16:33 2019

Academic license - for non-commercial use only
